10
0	110	788	683	428	725	862	110	456	414	
110	0	129	872	35	528	148	985	630	725	
788	129	0	476	276	902	683	78	469	148	
683	872	476	0	434	425	433	101	487	688	
428	35	276	434	0	581	19	232	150	842	
725	528	902	425	581	0	59	33	730	911	
862	148	683	433	19	59	0	568	335	198	
110	985	78	101	232	33	568	0	751	48	
456	630	469	487	150	730	335	751	0	747	
414	725	148	688	842	911	198	48	747	0	
